cvc5/14163.corecstrs.readable_easy.smt2
(set-info :smt-lib-version 2.6)
(set-logic QF_SLIA)
(set-info :source |
Generated by: Andrew Reynolds
Generated on: 2018-04-25
Generator: Kudzu, converted to v2.6 by CVC4
Application: Symbolic Execution of Javascript
Target solver: Kaluza
Publications: "A symbolic execution framework for JavaScript" by P. Saxena, D. Akhawe, S. Hanna, F. Mao, S. McCamant, and D. Song, 2010.
|)
(set-info :license "https://creativecommons.org/licenses/by/4.0/")
(set-info :category "industrial")
(set-info :status unknown)



(declare-fun T_1 () Bool)
(declare-fun var_0xINPUT_147214 () String)
(declare-const part_0_1435 String)
(assert (= T_1 (= var_0xINPUT_147214 "Search")))
(assert T_1)
(assert (= (str.split_at var_0xINPUT_147214 ";" 2) part_0_1435))
(assert (= (str.split_at var_0xINPUT_147214 ";" 2) "pc6onr"))
(assert (= (str.split_at var_0xINPUT_147214 ";" 1) var_0xINPUT_147214))
(check-sat)

(exit)
(get-model)
