cvc5/14163.corecstrs.readable_easy.txt
(define-fun T_1 () Bool true)
(define-fun var_0xINPUT_147214 () String "Search")
(define-fun part_0_1435 () String "pc6onr")